\ LP format - for model browsing. Use MPS format to capture full model detail.
Minimize
  0 B39(0) + 0 B41(0) + 0 B44(0) + 0 B47(0) + 0 B50(0) + 0 B53(0) + 0 B55(0)
   + 0 B57(0) + 0 B64(0) + 0 B66(0) + 0 B69(0) + 0 B71(0) + 0 B72(0)
   + 0 B75(0) + 0 B78(0) + 0 B81(0) + 0 B84(0) + 0 B85(0) + 0 B86(0)
   + 0 B87(0) + 0 B88(0) + 0 B89(0) + 0 B92(0) + 0 B95(0) + 0 B98(0)
   + 0 B99(0) + 0 B100(0) + 0 B101(0) + 0 B102(0) + 0 B103(0) + 0 B111(0)
   + 0 B114(0) + 0 B115(0) + 0 B116(0) + 0 B117(0) + 0 B119(0) + 0 B120(0)
   + 0 B123(0) + 0 B126(0) + 0 B129(0) + 0 B130(0) + 0 B131(0) + 0 B132(0)
   + 0 B133(0) + 0 B134(0) + 0 B135(0) + 0 B137(0) + 0 B140(0) + 0 B143(0)
   + 0 B144(0) + 0 B145(0) + 0 B146(0) + 0 B147(0) + 0 B148(0) + 0 B149(0)
   + 0 B151(0) + 0 B152(0) + 0 B155(0) + 0 B156(0) + 0 B159(0) + 0 B160(0)
   + 0 B161(0) + 0 B162(0) + 0 B163(0) + 0 B164(0) + 0 B165(0) + 0 B166(0)
   + 0 B167(0) + 0 B168(0) + 0 B169(0) + 0 B171(0) + 0 B172(0) + 0 B174(0)
   + 0 B175(0) + 0 B176(0) + 0 B177(0) + 0 B178(0) + 0 B179(0) + 0 B180(0)
   + 0 B181(0) + 0 B182(0) + 0 B183(0) + 0 B184(0) + 0 B185(0) + 0 B188(0)
   + 0 B189(0) + 0 B190(0) + 0 B191(0) + 0 B192(0) + 0 B193(0) + 0 B194(0)
   + 0 B195(0) + 0 B196(0) + 0 B197(0) + 0 B198(0) + 0 B199(0) + 0 B200(0)
   + 0 B204(0) + 0 B205(0) + 0 B206(0) + 0 B207(0) + 0 B208(0) + 0 B209(0)
   + 0 B210(0) + 0 B211(0) + 0 B212(0) + 0 B213(0) + 0 B214(0) + 0 B215(0)
   + 0 B216(0) + 0 B217(0) + 0 B219(0) + 0 B220(0) + 0 B221(0) + 0 B222(0)
   + 0 B223(0) + 0 B224(0) + 0 B225(0) + 0 B226(0) + 0 B227(0) + 0 B228(0)
   + 0 B229(0) + 0 B230(0) + 0 B231(0) + 0 B233(0) + 0 B234(0) + 0 B235(0)
   + 0 B236(0) + 0 B237(0) + 0 B238(0) + 0 B239(0) + 0 B240(0) + 0 B241(0)
   + 0 B242(0) + 0 B243(0) + 0 B244(0) + 0 B245(0) + 0 B247(0) + 0 B249(0)
   + 0 B250(0) + 0 B251(0) + 0 B252(0) + 0 B253(0) + 0 B254(0) + 0 B255(0)
   + 0 B256(0) + 0 B257(0) + 0 B258(0) + 0 B259(0) + 0 B260(0) + 0 B261(0)
   + 0 B263(0) + I303(1)
Subject To
 c0: 150 B0(18) + I264(20) - 1e+07 B304(5) >= -9.99952e+06
 c1: 150 B0(18) + I264(20) - 1e+07 B304(5) <= 480
 c2: 160 B1(14) + I265(16) - 1e+07 B305(5) >= -9.99952e+06
 c3: 160 B1(14) + I265(16) - 1e+07 B305(5) <= 480
 c4: 200 B2(8) + I266(10) - 1e+07 B306(5) >= -9.99952e+06
 c5: 200 B2(8) + I266(10) - 1e+07 B306(5) <= 480
 c6: 178 B9(14) + I273(16) - 1e+07 B307(5) >= -9.99952e+06
 c7: 178 B9(14) + I273(16) - 1e+07 B307(5) <= 480
 c8: 95 B10(10) + I274(12) - 1e+07 B308(5) >= -9.99952e+06
 c9: 95 B10(10) + I274(12) - 1e+07 B308(5) <= 480
 c10: 150 B11(8) + I275(10) - 1e+07 B309(5) >= -9.99952e+06
 c11: 150 B11(8) + I275(10) - 1e+07 B309(5) <= 480
 c12: 190 B17(18) + I281(20) - 1e+07 B310(5) >= -9.99952e+06
 c13: 190 B17(18) + I281(20) - 1e+07 B310(5) <= 480
 c14: 100 B18(14) + I282(16) - 1e+07 B311(5) >= -9.99952e+06
 c15: 100 B18(14) + I282(16) - 1e+07 B311(5) <= 480
 c16: 153 B19(10) + I283(12) - 1e+07 B312(5) >= -9.99952e+06
 c17: 153 B19(10) + I283(12) - 1e+07 B312(5) <= 480
 c18: 145 B25(16) + I289(18) - 1e+07 B313(5) >= -9.99952e+06
 c19: 145 B25(16) + I289(18) - 1e+07 B313(5) <= 480
 c20: 136 B26(10) + I290(12) - 1e+07 B314(5) >= -9.99952e+06
 c21: 136 B26(10) + I290(12) - 1e+07 B314(5) <= 480
 c22: 110 B31(16) + I295(18) - 1e+07 B315(5) >= -9.99952e+06
 c23: 110 B31(16) + I295(18) - 1e+07 B315(5) <= 480
 c24: 85 B32(10) + I296(12) - 1e+07 B316(5) >= -9.99952e+06
 c25: 85 B32(10) + I296(12) - 1e+07 B316(5) <= 480
 c26: B304(5) >= 0
 c27: B305(5) >= 0
 c28: B306(5) >= 0
 c29: B307(5) >= 0
 c30: B308(5) >= 0
 c31: B309(5) >= 0
 c32: B310(5) >= 0
 c33: B311(5) >= 0
 c34: B312(5) >= 0
 c35: B313(5) >= 0
 c36: B314(5) >= 0
 c37: B315(5) >= 0
 c38: B316(5) >= 0
 c39: B0(18) + B1(14) + B2(8) = 1
 c40: B3(15) + B4(15) + B5(17) = 1
 c41: B6(16) + B7(16) + B8(16) = 1
 c42: B9(14) + B10(10) + B11(8) = 1
 c43: B12(13) + B13(17) + B14(15) = 1
 c44: B15(14) + B16(18) = 1
 c45: B17(18) + B18(14) + B19(10) = 1
 c46: B20(15) + B21(17) + B22(7) = 1
 c47: B23(14) + B24(14) = 1
 c48: B25(16) + B26(10) = 1
 c49: B27(15) + B28(13) = 1
 c50: B29(14) + B30(14) = 1
 c51: B31(16) + B32(10) = 1
 c52: B33(17) + B34(15) + B35(15) = 1
 c53: B36(14) + B37(14) + B38(18) = 1
 c54: - 1e+07 B0(18) + I264(20) <= 0
 c55: - 1e+07 B1(14) + I265(16) <= 0
 c56: - 1e+07 B2(8) + I266(10) <= 0
 c57: - 1e+07 B3(15) + I267(16) <= 0
 c58: - 1e+07 B4(15) + I268(16) <= 0
 c59: - 1e+07 B5(17) + I269(18) <= 0
 c60: - 1e+07 B6(16) + I270(16) <= 0
 c61: - 1e+07 B7(16) + I271(16) <= 0
 c62: - 1e+07 B8(16) + I272(16) <= 0
 c63: - 1e+07 B9(14) + I273(16) <= 0
 c64: - 1e+07 B10(10) + I274(12) <= 0
 c65: - 1e+07 B11(8) + I275(10) <= 0
 c66: - 1e+07 B12(13) + I276(14) <= 0
 c67: - 1e+07 B13(17) + I277(18) <= 0
 c68: - 1e+07 B14(15) + I278(16) <= 0
 c69: - 1e+07 B15(14) + I279(14) <= 0
 c70: - 1e+07 B16(18) + I280(18) <= 0
 c71: - 1e+07 B17(18) + I281(20) <= 0
 c72: - 1e+07 B18(14) + I282(16) <= 0
 c73: - 1e+07 B19(10) + I283(12) <= 0
 c74: - 1e+07 B20(15) + I284(16) <= 0
 c75: - 1e+07 B21(17) + I285(18) <= 0
 c76: - 1e+07 B22(7) + I286(8) <= 0
 c77: - 1e+07 B23(14) + I287(14) <= 0
 c78: - 1e+07 B24(14) + I288(14) <= 0
 c79: - 1e+07 B25(16) + I289(18) <= 0
 c80: - 1e+07 B26(10) + I290(12) <= 0
 c81: - 1e+07 B27(15) + I291(16) <= 0
 c82: - 1e+07 B28(13) + I292(14) <= 0
 c83: - 1e+07 B29(14) + I293(14) <= 0
 c84: - 1e+07 B30(14) + I294(14) <= 0
 c85: - 1e+07 B31(16) + I295(18) <= 0
 c86: - 1e+07 B32(10) + I296(12) <= 0
 c87: - 1e+07 B33(17) + I297(18) <= 0
 c88: - 1e+07 B34(15) + I298(16) <= 0
 c89: - 1e+07 B35(15) + I299(16) <= 0
 c90: - 1e+07 B36(14) + I300(14) <= 0
 c91: - 1e+07 B37(14) + I301(14) <= 0
 c92: - 1e+07 B38(18) + I302(18) <= 0
 c93: - 122 B3(15) - 130 B4(15) - 140 B5(17) + I264(20) + I265(16)
   + I266(10) - I267(16) - I268(16) - I269(18) >= 0
 c94: - 147 B6(16) - 122 B7(16) - 145 B8(16) + I267(16) + I268(16)
   + I269(18) - I270(16) - I271(16) - I272(16) >= 0
 c95: - 66 B12(13) - 87 B13(17) - 99 B14(15) + I273(16) + I274(12)
   + I275(10) - I276(14) - I277(18) - I278(16) >= 0
 c96: - 214 B15(14) - 150 B16(18) + I276(14) + I277(18) + I278(16)
   - I279(14) - I280(18) >= 0
 c97: - 180 B20(15) - 105 B21(17) - 145 B22(7) + I281(20) + I282(16)
   + I283(12) - I284(16) - I285(18) - I286(8) >= 0
 c98: - 87 B23(14) - 62 B24(14) + I284(16) + I285(18) + I286(8) - I287(14)
   - I288(14) >= 0
 c99: - 250 B27(15) - 173 B28(13) + I289(18) + I290(12) - I291(16)
   - I292(14) >= 0
 c100: - 87 B29(14) - 65 B30(14) + I291(16) + I292(14) - I293(14)
   - I294(14) >= 0
 c101: - 86 B33(17) - 65 B34(15) - 47 B35(15) + I295(18) + I296(12)
   - I297(18) - I298(16) - I299(16) >= 0
 c102: - 128 B36(14) - 122 B37(14) - 145 B38(18) + I297(18) + I298(16)
   + I299(16) - I300(14) - I301(14) - I302(18) >= 0
 c103: - 1e+07 B0(18) - 1e+07 B5(17) + 1e+07 B40(2) - I264(20) + I269(18)
   >= -1.9999301e+07
 c104: - 1e+07 B0(18) - 1e+07 B5(17) - 1e+07 B40(2) + I264(20) - I269(18)
   >= -2.9998976e+07
 c105: - 1e+07 B1(14) - 1e+07 B9(14) + 1e+07 B42(4) - I265(16) + I273(16)
   >= -1.9999312e+07
 c106: - 1e+07 B1(14) - 1e+07 B9(14) - 1e+07 B42(4) + I265(16) - I273(16)
   >= -2.9999612e+07
 c107: - 1e+07 B2(8) - 1e+07 B11(8) + 1e+07 B42(4) - I266(10) + I275(10)
   >= -1.9999119e+07
 c108: - 1e+07 B2(8) - 1e+07 B11(8) - 1e+07 B42(4) + I266(10) - I275(10)
   >= -2.9998725e+07
 c109: - 1e+07 B0(18) - 1e+07 B14(15) + 1e+07 B43(2) - I264(20) + I278(16)
   >= -1.9999045e+07
 c110: - 1e+07 B0(18) - 1e+07 B14(15) - 1e+07 B43(2) + I264(20) - I278(16)
   >= -2.9999652e+07
 c111: - 1e+07 B0(18) - 1e+07 B17(18) + 1e+07 B45(4) - I264(20) + I281(20)
   >= -1.9999568e+07
 c112: - 1e+07 B0(18) - 1e+07 B17(18) - 1e+07 B45(4) + I264(20) - I281(20)
   >= -2.9998846e+07
 c113: - 1e+07 B1(14) - 1e+07 B18(14) + 1e+07 B45(4) - I265(16) + I282(16)
   >= -1.9999652e+07
 c114: - 1e+07 B1(14) - 1e+07 B18(14) - 1e+07 B45(4) + I265(16) - I282(16)
   >= -2.9999709e+07
 c115: - 1e+07 B0(18) - 1e+07 B21(17) + 1e+07 B46(4) - I264(20) + I285(18)
   >= -1.9998745e+07
 c116: - 1e+07 B0(18) - 1e+07 B21(17) - 1e+07 B46(4) + I264(20) - I285(18)
   >= -2.99998e+07
 c117: - 1e+07 B2(8) - 1e+07 B22(7) + 1e+07 B46(4) - I266(10) + I286(8)
   >= -1.9999265e+07
 c118: - 1e+07 B2(8) - 1e+07 B22(7) - 1e+07 B46(4) + I266(10) - I286(8)
   >= -2.9999391e+07
 c119: - 1e+07 B0(18) - 1e+07 B25(16) + 1e+07 B48(2) - I264(20) + I289(18)
   >= -1.9999622e+07
 c120: - 1e+07 B0(18) - 1e+07 B25(16) - 1e+07 B48(2) + I264(20) - I289(18)
   >= -2.9999594e+07
 c121: - 1e+07 B1(14) - 1e+07 B28(13) + 1e+07 B49(2) - I265(16) + I292(14)
   >= -1.9998835e+07
 c122: - 1e+07 B1(14) - 1e+07 B28(13) - 1e+07 B49(2) + I265(16) - I292(14)
   >= -2.9999063e+07
 c123: - 1e+07 B1(14) - 1e+07 B31(16) + 1e+07 B51(2) - I265(16) + I295(18)
   >= -1.999902e+07
 c124: - 1e+07 B1(14) - 1e+07 B31(16) - 1e+07 B51(2) + I265(16) - I295(18)
   >= -2.9999841e+07
 c125: - 1e+07 B0(18) - 1e+07 B34(15) + 1e+07 B52(4) - I264(20) + I298(16)
   >= -1.9999675e+07
 c126: - 1e+07 B0(18) - 1e+07 B34(15) - 1e+07 B52(4) + I264(20) - I298(16)
   >= -2.9999537e+07
 c127: - 1e+07 B1(14) - 1e+07 B35(15) + 1e+07 B52(4) - I265(16) + I299(16)
   >= -1.9999612e+07
 c128: - 1e+07 B1(14) - 1e+07 B35(15) - 1e+07 B52(4) + I265(16) - I299(16)
   >= -2.9999841e+07
 c129: - 1e+07 B0(18) - 1e+07 B5(17) + 1e+07 B54(2) + I264(20) - I269(18)
   >= -1.9998976e+07
 c130: - 1e+07 B0(18) - 1e+07 B5(17) - 1e+07 B54(2) - I264(20) + I269(18)
   >= -2.9999301e+07
 c131: - 1e+07 B3(15) - 1e+07 B6(16) + 1e+07 B56(4) - I267(16) + I270(16)
   >= -1.999933e+07
 c132: - 1e+07 B3(15) - 1e+07 B6(16) - 1e+07 B56(4) + I267(16) - I270(16)
   >= -2.9999627e+07
 c133: - 1e+07 B4(15) - 1e+07 B7(16) + 1e+07 B56(4) - I268(16) + I271(16)
   >= -1.999927e+07
 c134: - 1e+07 B4(15) - 1e+07 B7(16) - 1e+07 B56(4) + I268(16) - I271(16)
   >= -2.9998653e+07
 c135: - 1e+07 B4(15) - 1e+07 B12(13) + 1e+07 B58(4) - I268(16) + I276(14)
   >= -1.9999618e+07
 c136: - 1e+07 B4(15) - 1e+07 B12(13) - 1e+07 B58(4) + I268(16) - I276(14)
   >= -2.9999806e+07
 c137: - 1e+07 B5(17) - 1e+07 B14(15) + 1e+07 B58(4) - I269(18) + I278(16)
   >= -1.9999538e+07
 c138: - 1e+07 B5(17) - 1e+07 B14(15) - 1e+07 B58(4) + I269(18) - I278(16)
   >= -2.9999361e+07
 c139: - 1e+07 B3(15) - 1e+07 B15(14) + 1e+07 B59(2) - I267(16) + I279(14)
   >= -1.9999358e+07
 c140: - 1e+07 B3(15) - 1e+07 B15(14) - 1e+07 B59(2) + I267(16) - I279(14)
   >= -2.9999094e+07
 c141: - 1e+07 B5(17) - 1e+07 B17(18) + 1e+07 B60(2) - I269(18) + I281(20)
   >= -1.9999641e+07
 c142: - 1e+07 B5(17) - 1e+07 B17(18) - 1e+07 B60(2) + I269(18) - I281(20)
   >= -2.9999676e+07
 c143: - 1e+07 B5(17) - 1e+07 B21(17) + 1e+07 B61(2) - I269(18) + I285(18)
   >= -1.9999268e+07
 c144: - 1e+07 B5(17) - 1e+07 B21(17) - 1e+07 B61(2) + I269(18) - I285(18)
   >= -2.9999733e+07
 c145: - 1e+07 B3(15) - 1e+07 B23(14) + 1e+07 B62(4) - I267(16) + I287(14)
   >= -1.999945e+07
 c146: - 1e+07 B3(15) - 1e+07 B23(14) - 1e+07 B62(4) + I267(16) - I287(14)
   >= -2.9999745e+07
 c147: - 1e+07 B4(15) - 1e+07 B24(14) + 1e+07 B62(4) - I268(16) + I288(14)
   >= -1.9998805e+07
 c148: - 1e+07 B4(15) - 1e+07 B24(14) - 1e+07 B62(4) + I268(16) - I288(14)
   >= -2.9999795e+07
 c149: - 1e+07 B5(17) - 1e+07 B25(16) + 1e+07 B63(2) - I269(18) + I289(18)
   >= -1.9998944e+07
 c150: - 1e+07 B5(17) - 1e+07 B25(16) - 1e+07 B63(2) + I269(18) - I289(18)
   >= -2.9999417e+07
 c151: - 1e+07 B3(15) - 1e+07 B29(14) + 1e+07 B65(4) - I267(16) + I293(14)
   >= -1.9999598e+07
 c152: - 1e+07 B3(15) - 1e+07 B29(14) - 1e+07 B65(4) + I267(16) - I293(14)
   >= -2.9999049e+07
 c153: - 1e+07 B4(15) - 1e+07 B30(14) + 1e+07 B65(4) - I268(16) + I294(14)
   >= -1.9999754e+07
 c154: - 1e+07 B4(15) - 1e+07 B30(14) - 1e+07 B65(4) + I268(16) - I294(14)
   >= -2.9999437e+07
 c155: - 1e+07 B5(17) - 1e+07 B34(15) + 1e+07 B67(2) - I269(18) + I298(16)
   >= -1.9999626e+07
 c156: - 1e+07 B5(17) - 1e+07 B34(15) - 1e+07 B67(2) + I269(18) - I298(16)
   >= -2.9999883e+07
 c157: - 1e+07 B3(15) - 1e+07 B36(14) + 1e+07 B68(4) - I267(16) + I300(14)
   >= -1.9999173e+07
 c158: - 1e+07 B3(15) - 1e+07 B36(14) - 1e+07 B68(4) + I267(16) - I300(14)
   >= -2.9999789e+07
 c159: - 1e+07 B4(15) - 1e+07 B37(14) + 1e+07 B68(4) - I268(16) + I301(14)
   >= -1.9999692e+07
 c160: - 1e+07 B4(15) - 1e+07 B37(14) - 1e+07 B68(4) + I268(16) - I301(14)
   >= -2.9999768e+07
 c161: - 1e+07 B3(15) - 1e+07 B6(16) + 1e+07 B70(4) + I267(16) - I270(16)
   >= -1.9999627e+07
 c162: - 1e+07 B3(15) - 1e+07 B6(16) - 1e+07 B70(4) - I267(16) + I270(16)
   >= -2.999933e+07
 c163: - 1e+07 B4(15) - 1e+07 B7(16) + 1e+07 B70(4) + I268(16) - I271(16)
   >= -1.9998653e+07
 c164: - 1e+07 B4(15) - 1e+07 B7(16) - 1e+07 B70(4) - I268(16) + I271(16)
   >= -2.999927e+07
 c165: - 1e+07 B7(16) - 1e+07 B12(13) + 1e+07 B73(4) - I271(16) + I276(14)
   >= -1.9999042e+07
 c166: - 1e+07 B7(16) - 1e+07 B12(13) - 1e+07 B73(4) + I271(16) - I276(14)
   >= -2.9999184e+07
 c167: - 1e+07 B8(16) - 1e+07 B13(17) + 1e+07 B73(4) - I272(16) + I277(18)
   >= -1.9999485e+07
 c168: - 1e+07 B8(16) - 1e+07 B13(17) - 1e+07 B73(4) + I272(16) - I277(18)
   >= -2.999955e+07
 c169: - 1e+07 B6(16) - 1e+07 B15(14) + 1e+07 B74(4) - I270(16) + I279(14)
   >= -1.9999629e+07
 c170: - 1e+07 B6(16) - 1e+07 B15(14) - 1e+07 B74(4) + I270(16) - I279(14)
   >= -2.9999456e+07
 c171: - 1e+07 B8(16) - 1e+07 B16(18) + 1e+07 B74(4) - I272(16) + I280(18)
   >= -1.9999567e+07
 c172: - 1e+07 B8(16) - 1e+07 B16(18) - 1e+07 B74(4) + I272(16) - I280(18)
   >= -2.9999622e+07
 c173: - 1e+07 B8(16) - 1e+07 B20(15) + 1e+07 B76(2) - I272(16) + I284(16)
   >= -1.9999635e+07
 c174: - 1e+07 B8(16) - 1e+07 B20(15) - 1e+07 B76(2) + I272(16) - I284(16)
   >= -2.9999624e+07
 c175: - 1e+07 B6(16) - 1e+07 B23(14) + 1e+07 B77(4) - I270(16) + I287(14)
   >= -1.9998853e+07
 c176: - 1e+07 B6(16) - 1e+07 B23(14) - 1e+07 B77(4) + I270(16) - I287(14)
   >= -2.9999501e+07
 c177: - 1e+07 B7(16) - 1e+07 B24(14) + 1e+07 B77(4) - I271(16) + I288(14)
   >= -1.9999198e+07
 c178: - 1e+07 B7(16) - 1e+07 B24(14) - 1e+07 B77(4) + I271(16) - I288(14)
   >= -2.9999779e+07
 c179: - 1e+07 B8(16) - 1e+07 B27(15) + 1e+07 B79(2) - I272(16) + I291(16)
   >= -1.9999672e+07
 c180: - 1e+07 B8(16) - 1e+07 B27(15) - 1e+07 B79(2) + I272(16) - I291(16)
   >= -2.9999636e+07
 c181: - 1e+07 B6(16) - 1e+07 B29(14) + 1e+07 B80(4) - I270(16) + I293(14)
   >= -1.9999579e+07
 c182: - 1e+07 B6(16) - 1e+07 B29(14) - 1e+07 B80(4) + I270(16) - I293(14)
   >= -2.9999413e+07
 c183: - 1e+07 B7(16) - 1e+07 B30(14) + 1e+07 B80(4) - I271(16) + I294(14)
   >= -1.9999654e+07
 c184: - 1e+07 B7(16) - 1e+07 B30(14) - 1e+07 B80(4) + I271(16) - I294(14)
   >= -2.9999254e+07
 c185: - 1e+07 B8(16) - 1e+07 B33(17) + 1e+07 B82(2) - I272(16) + I297(18)
   >= -1.9999216e+07
 c186: - 1e+07 B8(16) - 1e+07 B33(17) - 1e+07 B82(2) + I272(16) - I297(18)
   >= -2.9998926e+07
 c187: - 1e+07 B6(16) - 1e+07 B36(14) + 1e+07 B83(6) - I270(16) + I300(14)
   >= -1.9999674e+07
 c188: - 1e+07 B6(16) - 1e+07 B36(14) - 1e+07 B83(6) + I270(16) - I300(14)
   >= -2.9999276e+07
 c189: - 1e+07 B7(16) - 1e+07 B37(14) + 1e+07 B83(6) - I271(16) + I301(14)
   >= -1.9999766e+07
 c190: - 1e+07 B7(16) - 1e+07 B37(14) - 1e+07 B83(6) + I271(16) - I301(14)
   >= -2.9999238e+07
 c191: - 1e+07 B8(16) - 1e+07 B38(18) + 1e+07 B83(6) - I272(16) + I302(18)
   >= -1.9999215e+07
 c192: - 1e+07 B8(16) - 1e+07 B38(18) - 1e+07 B83(6) + I272(16) - I302(18)
   >= -2.9999025e+07
 c193: - 1e+07 B9(14) - 1e+07 B18(14) + 1e+07 B90(4) - I273(16) + I282(16)
   >= -1.9999197e+07
 c194: - 1e+07 B9(14) - 1e+07 B18(14) - 1e+07 B90(4) + I273(16) - I282(16)
   >= -2.9999246e+07
 c195: - 1e+07 B10(10) - 1e+07 B19(10) + 1e+07 B90(4) - I274(12) + I283(12)
   >= -1.9999619e+07
 c196: - 1e+07 B10(10) - 1e+07 B19(10) - 1e+07 B90(4) + I274(12) - I283(12)
   >= -2.9999519e+07
 c197: - 1e+07 B11(8) - 1e+07 B22(7) + 1e+07 B91(2) - I275(10) + I286(8)
   >= -1.999959e+07
 c198: - 1e+07 B11(8) - 1e+07 B22(7) - 1e+07 B91(2) + I275(10) - I286(8)
   >= -2.9999395e+07
 c199: - 1e+07 B10(10) - 1e+07 B26(10) + 1e+07 B93(2) - I274(12) + I290(12)
   >= -1.9999428e+07
 c200: - 1e+07 B10(10) - 1e+07 B26(10) - 1e+07 B93(2) + I274(12) - I290(12)
   >= -2.9999644e+07
 c201: - 1e+07 B9(14) - 1e+07 B28(13) + 1e+07 B94(2) - I273(16) + I292(14)
   >= -1.9998707e+07
 c202: - 1e+07 B9(14) - 1e+07 B28(13) - 1e+07 B94(2) + I273(16) - I292(14)
   >= -2.9998817e+07
 c203: - 1e+07 B9(14) - 1e+07 B31(16) + 1e+07 B96(4) - I273(16) + I295(18)
   >= -1.9999576e+07
 c204: - 1e+07 B9(14) - 1e+07 B31(16) - 1e+07 B96(4) + I273(16) - I295(18)
   >= -2.9999797e+07
 c205: - 1e+07 B10(10) - 1e+07 B32(10) + 1e+07 B96(4) - I274(12) + I296(12)
   >= -1.9999662e+07
 c206: - 1e+07 B10(10) - 1e+07 B32(10) - 1e+07 B96(4) + I274(12) - I296(12)
   >= -2.9999597e+07
 c207: - 1e+07 B9(14) - 1e+07 B35(15) + 1e+07 B97(2) - I273(16) + I299(16)
   >= -1.999945e+07
 c208: - 1e+07 B9(14) - 1e+07 B35(15) - 1e+07 B97(2) + I273(16) - I299(16)
   >= -2.9999605e+07
 c209: - 1e+07 B13(17) - 1e+07 B16(18) + 1e+07 B104(2) - I277(18)
   + I280(18) >= -1.9999732e+07
 c210: - 1e+07 B13(17) - 1e+07 B16(18) - 1e+07 B104(2) + I277(18)
   - I280(18) >= -2.9999748e+07
 c211: - 1e+07 B14(15) - 1e+07 B17(18) + 1e+07 B105(2) - I278(16)
   + I281(20) >= -1.9999735e+07
 c212: - 1e+07 B14(15) - 1e+07 B17(18) - 1e+07 B105(2) + I278(16)
   - I281(20) >= -2.999961e+07
 c213: - 1e+07 B13(17) - 1e+07 B20(15) + 1e+07 B106(4) - I277(18)
   + I284(16) >= -1.9999065e+07
 c214: - 1e+07 B13(17) - 1e+07 B20(15) - 1e+07 B106(4) + I277(18)
   - I284(16) >= -2.9999693e+07
 c215: - 1e+07 B14(15) - 1e+07 B21(17) + 1e+07 B106(4) - I278(16)
   + I285(18) >= -1.9999565e+07
 c216: - 1e+07 B14(15) - 1e+07 B21(17) - 1e+07 B106(4) + I278(16)
   - I285(18) >= -2.9999768e+07
 c217: - 1e+07 B12(13) - 1e+07 B24(14) + 1e+07 B107(2) - I276(14)
   + I288(14) >= -1.999939e+07
 c218: - 1e+07 B12(13) - 1e+07 B24(14) - 1e+07 B107(2) + I276(14)
   - I288(14) >= -2.9999768e+07
 c219: - 1e+07 B14(15) - 1e+07 B25(16) + 1e+07 B108(2) - I278(16)
   + I289(18) >= -1.9999718e+07
 c220: - 1e+07 B14(15) - 1e+07 B25(16) - 1e+07 B108(2) + I278(16)
   - I289(18) >= -2.9999681e+07
 c221: - 1e+07 B13(17) - 1e+07 B27(15) + 1e+07 B109(2) - I277(18)
   + I291(16) >= -1.9999457e+07
 c222: - 1e+07 B13(17) - 1e+07 B27(15) - 1e+07 B109(2) + I277(18)
   - I291(16) >= -2.9999566e+07
 c223: - 1e+07 B12(13) - 1e+07 B30(14) + 1e+07 B110(2) - I276(14)
   + I294(14) >= -1.9999253e+07
 c224: - 1e+07 B12(13) - 1e+07 B30(14) - 1e+07 B110(2) + I276(14)
   - I294(14) >= -2.9999836e+07
 c225: - 1e+07 B13(17) - 1e+07 B33(17) + 1e+07 B112(4) - I277(18)
   + I297(18) >= -1.9999573e+07
 c226: - 1e+07 B13(17) - 1e+07 B33(17) - 1e+07 B112(4) + I277(18)
   - I297(18) >= -2.9999756e+07
 c227: - 1e+07 B14(15) - 1e+07 B34(15) + 1e+07 B112(4) - I278(16)
   + I298(16) >= -1.9999514e+07
 c228: - 1e+07 B14(15) - 1e+07 B34(15) - 1e+07 B112(4) + I278(16)
   - I298(16) >= -2.999966e+07
 c229: - 1e+07 B12(13) - 1e+07 B37(14) + 1e+07 B113(4) - I276(14)
   + I301(14) >= -1.9999733e+07
 c230: - 1e+07 B12(13) - 1e+07 B37(14) - 1e+07 B113(4) + I276(14)
   - I301(14) >= -2.9998998e+07
 c231: - 1e+07 B13(17) - 1e+07 B38(18) + 1e+07 B113(4) - I277(18)
   + I302(18) >= -1.9999551e+07
 c232: - 1e+07 B13(17) - 1e+07 B38(18) - 1e+07 B113(4) + I277(18)
   - I302(18) >= -2.9999798e+07
 c233: - 1e+07 B13(17) - 1e+07 B16(18) + 1e+07 B118(2) + I277(18)
   - I280(18) >= -1.9999748e+07
 c234: - 1e+07 B13(17) - 1e+07 B16(18) - 1e+07 B118(2) - I277(18)
   + I280(18) >= -2.9999732e+07
 c235: - 1e+07 B16(18) - 1e+07 B20(15) + 1e+07 B121(2) - I280(18)
   + I284(16) >= -1.999897e+07
 c236: - 1e+07 B16(18) - 1e+07 B20(15) - 1e+07 B121(2) + I280(18)
   - I284(16) >= -2.9999732e+07
 c237: - 1e+07 B15(14) - 1e+07 B23(14) + 1e+07 B122(2) - I279(14)
   + I287(14) >= -1.9999432e+07
 c238: - 1e+07 B15(14) - 1e+07 B23(14) - 1e+07 B122(2) + I279(14)
   - I287(14) >= -2.9999493e+07
 c239: - 1e+07 B16(18) - 1e+07 B27(15) + 1e+07 B124(2) - I280(18)
   + I291(16) >= -1.9999418e+07
 c240: - 1e+07 B16(18) - 1e+07 B27(15) - 1e+07 B124(2) + I280(18)
   - I291(16) >= -2.9999588e+07
 c241: - 1e+07 B15(14) - 1e+07 B29(14) + 1e+07 B125(2) - I279(14)
   + I293(14) >= -1.9999384e+07
 c242: - 1e+07 B15(14) - 1e+07 B29(14) - 1e+07 B125(2) + I279(14)
   - I293(14) >= -2.9999716e+07
 c243: - 1e+07 B16(18) - 1e+07 B33(17) + 1e+07 B127(2) - I280(18)
   + I297(18) >= -1.9999797e+07
 c244: - 1e+07 B16(18) - 1e+07 B33(17) - 1e+07 B127(2) + I280(18)
   - I297(18) >= -2.999966e+07
 c245: - 1e+07 B15(14) - 1e+07 B36(14) + 1e+07 B128(4) - I279(14)
   + I300(14) >= -1.9999462e+07
 c246: - 1e+07 B15(14) - 1e+07 B36(14) - 1e+07 B128(4) + I279(14)
   - I300(14) >= -2.9998912e+07
 c247: - 1e+07 B16(18) - 1e+07 B38(18) + 1e+07 B128(4) - I280(18)
   + I302(18) >= -1.9999518e+07
 c248: - 1e+07 B16(18) - 1e+07 B38(18) - 1e+07 B128(4) + I280(18)
   - I302(18) >= -2.9999427e+07
 c249: - 1e+07 B17(18) - 1e+07 B21(17) + 1e+07 B136(2) - I281(20)
   + I285(18) >= -1.9998715e+07
 c250: - 1e+07 B17(18) - 1e+07 B21(17) - 1e+07 B136(2) + I281(20)
   - I285(18) >= -2.9999828e+07
 c251: - 1e+07 B17(18) - 1e+07 B25(16) + 1e+07 B138(4) - I281(20)
   + I289(18) >= -1.999965e+07
 c252: - 1e+07 B17(18) - 1e+07 B25(16) - 1e+07 B138(4) + I281(20)
   - I289(18) >= -2.9999105e+07
 c253: - 1e+07 B19(10) - 1e+07 B26(10) + 1e+07 B138(4) - I283(12)
   + I290(12) >= -1.9999616e+07
 c254: - 1e+07 B19(10) - 1e+07 B26(10) - 1e+07 B138(4) + I283(12)
   - I290(12) >= -2.9999049e+07
 c255: - 1e+07 B18(14) - 1e+07 B28(13) + 1e+07 B139(2) - I282(16)
   + I292(14) >= -1.9999536e+07
 c256: - 1e+07 B18(14) - 1e+07 B28(13) - 1e+07 B139(2) + I282(16)
   - I292(14) >= -2.9999417e+07
 c257: - 1e+07 B18(14) - 1e+07 B31(16) + 1e+07 B141(4) - I282(16)
   + I295(18) >= -1.9999804e+07
 c258: - 1e+07 B18(14) - 1e+07 B31(16) - 1e+07 B141(4) + I282(16)
   - I295(18) >= -2.9998785e+07
 c259: - 1e+07 B19(10) - 1e+07 B32(10) + 1e+07 B141(4) - I283(12)
   + I296(12) >= -1.9999417e+07
 c260: - 1e+07 B19(10) - 1e+07 B32(10) - 1e+07 B141(4) + I283(12)
   - I296(12) >= -2.9999441e+07
 c261: - 1e+07 B17(18) - 1e+07 B34(15) + 1e+07 B142(4) - I281(20)
   + I298(16) >= -1.9998605e+07
 c262: - 1e+07 B17(18) - 1e+07 B34(15) - 1e+07 B142(4) + I281(20)
   - I298(16) >= -2.9999127e+07
 c263: - 1e+07 B18(14) - 1e+07 B35(15) + 1e+07 B142(4) - I282(16)
   + I299(16) >= -1.9999798e+07
 c264: - 1e+07 B18(14) - 1e+07 B35(15) - 1e+07 B142(4) + I282(16)
   - I299(16) >= -2.9999337e+07
 c265: - 1e+07 B17(18) - 1e+07 B21(17) + 1e+07 B150(2) + I281(20)
   - I285(18) >= -1.9999828e+07
 c266: - 1e+07 B17(18) - 1e+07 B21(17) - 1e+07 B150(2) - I281(20)
   + I285(18) >= -2.9998715e+07
 c267: - 1e+07 B21(17) - 1e+07 B25(16) + 1e+07 B153(2) - I285(18)
   + I289(18) >= -1.999965e+07
 c268: - 1e+07 B21(17) - 1e+07 B25(16) - 1e+07 B153(2) + I285(18)
   - I289(18) >= -2.9999183e+07
 c269: - 1e+07 B20(15) - 1e+07 B27(15) + 1e+07 B154(2) - I284(16)
   + I291(16) >= -1.9999193e+07
 c270: - 1e+07 B20(15) - 1e+07 B27(15) - 1e+07 B154(2) + I284(16)
   - I291(16) >= -2.9999365e+07
 c271: - 1e+07 B20(15) - 1e+07 B33(17) + 1e+07 B157(4) - I284(16)
   + I297(18) >= -1.9999364e+07
 c272: - 1e+07 B20(15) - 1e+07 B33(17) - 1e+07 B157(4) + I284(16)
   - I297(18) >= -2.999982e+07
 c273: - 1e+07 B21(17) - 1e+07 B34(15) + 1e+07 B157(4) - I285(18)
   + I298(16) >= -1.9999603e+07
 c274: - 1e+07 B21(17) - 1e+07 B34(15) - 1e+07 B157(4) + I285(18)
   - I298(16) >= -2.9999447e+07
 c275: - 1e+07 B20(15) - 1e+07 B38(18) + 1e+07 B158(2) - I284(16)
   + I302(18) >= -1.9999691e+07
 c276: - 1e+07 B20(15) - 1e+07 B38(18) - 1e+07 B158(2) + I284(16)
   - I302(18) >= -2.9999087e+07
 c277: - 1e+07 B23(14) - 1e+07 B29(14) + 1e+07 B170(4) - I287(14)
   + I293(14) >= -1.9999184e+07
 c278: - 1e+07 B23(14) - 1e+07 B29(14) - 1e+07 B170(4) + I287(14)
   - I293(14) >= -2.9999686e+07
 c279: - 1e+07 B24(14) - 1e+07 B30(14) + 1e+07 B170(4) - I288(14)
   + I294(14) >= -1.9999106e+07
 c280: - 1e+07 B24(14) - 1e+07 B30(14) - 1e+07 B170(4) + I288(14)
   - I294(14) >= -2.9999495e+07
 c281: - 1e+07 B23(14) - 1e+07 B36(14) + 1e+07 B173(4) - I287(14)
   + I300(14) >= -1.9999503e+07
 c282: - 1e+07 B23(14) - 1e+07 B36(14) - 1e+07 B173(4) + I287(14)
   - I300(14) >= -2.999967e+07
 c283: - 1e+07 B24(14) - 1e+07 B37(14) + 1e+07 B173(4) - I288(14)
   + I301(14) >= -1.9999766e+07
 c284: - 1e+07 B24(14) - 1e+07 B37(14) - 1e+07 B173(4) + I288(14)
   - I301(14) >= -2.9999554e+07
 c285: - 1e+07 B26(10) - 1e+07 B32(10) + 1e+07 B186(2) - I290(12)
   + I296(12) >= -1.9999507e+07
 c286: - 1e+07 B26(10) - 1e+07 B32(10) - 1e+07 B186(2) + I290(12)
   - I296(12) >= -2.9999521e+07
 c287: - 1e+07 B25(16) - 1e+07 B34(15) + 1e+07 B187(2) - I289(18)
   + I298(16) >= -1.9999435e+07
 c288: - 1e+07 B25(16) - 1e+07 B34(15) - 1e+07 B187(2) + I289(18)
   - I298(16) >= -2.9999091e+07
 c289: - 1e+07 B28(13) - 1e+07 B31(16) + 1e+07 B201(2) - I292(14)
   + I295(18) >= -1.9999352e+07
 c290: - 1e+07 B28(13) - 1e+07 B31(16) - 1e+07 B201(2) + I292(14)
   - I295(18) >= -2.9998978e+07
 c291: - 1e+07 B27(15) - 1e+07 B33(17) + 1e+07 B202(4) - I291(16)
   + I297(18) >= -1.9998885e+07
 c292: - 1e+07 B27(15) - 1e+07 B33(17) - 1e+07 B202(4) + I291(16)
   - I297(18) >= -2.9999594e+07
 c293: - 1e+07 B28(13) - 1e+07 B35(15) + 1e+07 B202(4) - I292(14)
   + I299(16) >= -1.9999032e+07
 c294: - 1e+07 B28(13) - 1e+07 B35(15) - 1e+07 B202(4) + I292(14)
   - I299(16) >= -2.99995e+07
 c295: - 1e+07 B27(15) - 1e+07 B38(18) + 1e+07 B203(2) - I291(16)
   + I302(18) >= -1.9999688e+07
 c296: - 1e+07 B27(15) - 1e+07 B38(18) - 1e+07 B203(2) + I291(16)
   - I302(18) >= -2.999967e+07
 c297: - 1e+07 B29(14) - 1e+07 B36(14) + 1e+07 B218(4) - I293(14)
   + I300(14) >= -1.9998973e+07
 c298: - 1e+07 B29(14) - 1e+07 B36(14) - 1e+07 B218(4) + I293(14)
   - I300(14) >= -2.9999364e+07
 c299: - 1e+07 B30(14) - 1e+07 B37(14) + 1e+07 B218(4) - I294(14)
   + I301(14) >= -1.9999452e+07
 c300: - 1e+07 B30(14) - 1e+07 B37(14) - 1e+07 B218(4) + I294(14)
   - I301(14) >= -2.999982e+07
 c301: - 1e+07 B31(16) - 1e+07 B35(15) + 1e+07 B232(2) - I295(18)
   + I299(16) >= -1.9999662e+07
 c302: - 1e+07 B31(16) - 1e+07 B35(15) - 1e+07 B232(2) + I295(18)
   - I299(16) >= -2.9999904e+07
 c303: - 1e+07 B31(16) - 1e+07 B35(15) + 1e+07 B246(2) + I295(18)
   - I299(16) >= -1.9999904e+07
 c304: - 1e+07 B31(16) - 1e+07 B35(15) - 1e+07 B246(2) - I295(18)
   + I299(16) >= -2.9999662e+07
 c305: - 1e+07 B33(17) - 1e+07 B38(18) + 1e+07 B248(2) - I297(18)
   + I302(18) >= -1.9999246e+07
 c306: - 1e+07 B33(17) - 1e+07 B38(18) - 1e+07 B248(2) + I297(18)
   - I302(18) >= -2.9999546e+07
 c307: - 1e+07 B33(17) - 1e+07 B38(18) + 1e+07 B262(2) + I297(18)
   - I302(18) >= -1.9999546e+07
 c308: - 1e+07 B33(17) - 1e+07 B38(18) - 1e+07 B262(2) - I297(18)
   + I302(18) >= -2.9999246e+07
 c309: I264(20) >= 0
 c310: I265(16) >= 0
 c311: I266(10) >= 0
 c312: I267(16) >= 0
 c313: I268(16) >= 0
 c314: I269(18) >= 0
 c315: - 480 B6(16) + I270(16) >= 0
 c316: I270(16) >= 0
 c317: - 480 B7(16) + I271(16) >= 0
 c318: I271(16) >= 0
 c319: - 480 B8(16) + I272(16) >= 0
 c320: I272(16) >= 0
 c321: I273(16) >= 0
 c322: I274(12) >= 0
 c323: I275(10) >= 0
 c324: I276(14) >= 0
 c325: I277(18) >= 0
 c326: I278(16) >= 0
 c327: - 480 B15(14) + I279(14) >= 0
 c328: I279(14) >= 0
 c329: - 480 B16(18) + I280(18) >= 0
 c330: I280(18) >= 0
 c331: I281(20) >= 0
 c332: I282(16) >= 0
 c333: I283(12) >= 0
 c334: I284(16) >= 0
 c335: I285(18) >= 0
 c336: I286(8) >= 0
 c337: - 480 B23(14) + I287(14) >= 0
 c338: I287(14) >= 0
 c339: - 480 B24(14) + I288(14) >= 0
 c340: I288(14) >= 0
 c341: I289(18) >= 0
 c342: I290(12) >= 0
 c343: I291(16) >= 0
 c344: I292(14) >= 0
 c345: - 480 B29(14) + I293(14) >= 0
 c346: I293(14) >= 0
 c347: - 480 B30(14) + I294(14) >= 0
 c348: I294(14) >= 0
 c349: I295(18) >= 0
 c350: I296(12) >= 0
 c351: I297(18) >= 0
 c352: I298(16) >= 0
 c353: I299(16) >= 0
 c354: - 480 B36(14) + I300(14) >= 0
 c355: I300(14) >= 0
 c356: - 480 B37(14) + I301(14) >= 0
 c357: I301(14) >= 0
 c358: - 480 B38(18) + I302(18) >= 0
 c359: I302(18) >= 0
 qc0: I303(1) + 330 B304(5) + 320 B305(5) + 280 B306(5) + 302 B307(5)
   + 385 B308(5) + 330 B309(5) + 290 B310(5) + 380 B311(5) + 327 B312(5)
   + 335 B313(5) + 344 B314(5) + 370 B315(5) + 395 B316(5) + [
   - I264(20) * B304(5) - I265(16) * B305(5) - I266(10) * B306(5)
   - I273(16) * B307(5) - I274(12) * B308(5) - I275(10) * B309(5)
   - I281(20) * B310(5) - I282(16) * B311(5) - I283(12) * B312(5)
   - I289(18) * B313(5) - I290(12) * B314(5) - I295(18) * B315(5)
   - I296(12) * B316(5) ] >= 0
Bounds
Binaries
 B0(18) B1(14) B2(8) B3(15) B4(15) B5(17) B6(16) B7(16) B8(16) B9(14)
 B10(10) B11(8) B12(13) B13(17) B14(15) B15(14) B16(18) B17(18) B18(14)
 B19(10) B20(15) B21(17) B22(7) B23(14) B24(14) B25(16) B26(10) B27(15)
 B28(13) B29(14) B30(14) B31(16) B32(10) B33(17) B34(15) B35(15) B36(14)
 B37(14) B38(18) B39(0) B40(2) B41(0) B42(4) B43(2) B44(0) B45(4) B46(4)
 B47(0) B48(2) B49(2) B50(0) B51(2) B52(4) B53(0) B54(2) B55(0) B56(4)
 B57(0) B58(4) B59(2) B60(2) B61(2) B62(4) B63(2) B64(0) B65(4) B66(0)
 B67(2) B68(4) B69(0) B70(4) B71(0) B72(0) B73(4) B74(4) B75(0) B76(2)
 B77(4) B78(0) B79(2) B80(4) B81(0) B82(2) B83(6) B84(0) B85(0) B86(0)
 B87(0) B88(0) B89(0) B90(4) B91(2) B92(0) B93(2) B94(2) B95(0) B96(4)
 B97(2) B98(0) B99(0) B100(0) B101(0) B102(0) B103(0) B104(2) B105(2)
 B106(4) B107(2) B108(2) B109(2) B110(2) B111(0) B112(4) B113(4) B114(0)
 B115(0) B116(0) B117(0) B118(2) B119(0) B120(0) B121(2) B122(2) B123(0)
 B124(2) B125(2) B126(0) B127(2) B128(4) B129(0) B130(0) B131(0) B132(0)
 B133(0) B134(0) B135(0) B136(2) B137(0) B138(4) B139(2) B140(0) B141(4)
 B142(4) B143(0) B144(0) B145(0) B146(0) B147(0) B148(0) B149(0) B150(2)
 B151(0) B152(0) B153(2) B154(2) B155(0) B156(0) B157(4) B158(2) B159(0)
 B160(0) B161(0) B162(0) B163(0) B164(0) B165(0) B166(0) B167(0) B168(0)
 B169(0) B170(4) B171(0) B172(0) B173(4) B174(0) B175(0) B176(0) B177(0)
 B178(0) B179(0) B180(0) B181(0) B182(0) B183(0) B184(0) B185(0) B186(2)
 B187(2) B188(0) B189(0) B190(0) B191(0) B192(0) B193(0) B194(0) B195(0)
 B196(0) B197(0) B198(0) B199(0) B200(0) B201(2) B202(4) B203(2) B204(0)
 B205(0) B206(0) B207(0) B208(0) B209(0) B210(0) B211(0) B212(0) B213(0)
 B214(0) B215(0) B216(0) B217(0) B218(4) B219(0) B220(0) B221(0) B222(0)
 B223(0) B224(0) B225(0) B226(0) B227(0) B228(0) B229(0) B230(0) B231(0)
 B232(2) B233(0) B234(0) B235(0) B236(0) B237(0) B238(0) B239(0) B240(0)
 B241(0) B242(0) B243(0) B244(0) B245(0) B246(2) B247(0) B248(2) B249(0)
 B250(0) B251(0) B252(0) B253(0) B254(0) B255(0) B256(0) B257(0) B258(0)
 B259(0) B260(0) B261(0) B262(2) B263(0) B304(5) B305(5) B306(5) B307(5)
 B308(5) B309(5) B310(5) B311(5) B312(5) B313(5) B314(5) B315(5) B316(5)
Generals
 I264(20) I265(16) I266(10) I267(16) I268(16) I269(18) I270(16) I271(16)
 I272(16) I273(16) I274(12) I275(10) I276(14) I277(18) I278(16) I279(14)
 I280(18) I281(20) I282(16) I283(12) I284(16) I285(18) I286(8) I287(14)
 I288(14) I289(18) I290(12) I291(16) I292(14) I293(14) I294(14) I295(18)
 I296(12) I297(18) I298(16) I299(16) I300(14) I301(14) I302(18) I303(1)
End
